db/data/2522384951060029023114616921582526762.z3.out
-------------------
2500.117252429
